p cnf 27 168
4 7 11 16 22 29 37 46 56 0
8 12 17 23 30 38 47 57 68 0
13 18 24 31 39 48 58 69 81 0
-4 -8 0
-7 -12 0
-11 -17 0
-16 -23 0
-22 -30 0
-29 -38 0
-37 -47 0
-46 -57 0
-56 -68 0
-4 -13 0
-7 -18 0
-11 -24 0
-16 -31 0
-22 -39 0
-29 -48 0
-37 -58 0
-46 -69 0
-56 -81 0
-8 -13 0
-12 -18 0
-17 -24 0
-23 -31 0
-30 -39 0
-38 -48 0
-47 -58 0
-57 -69 0
-68 -81 0
-4 -12 0
-4 -23 0
-4 -30 0
-4 -38 0
-4 -47 0
-4 -68 0
-7 -23 0
-7 -30 0
-7 -38 0
-7 -47 0
-7 -57 0
-11 -23 0
-11 -47 0
-16 -47 0
-16 -68 0
-22 -38 0
-22 -57 0
-22 -68 0
-29 -47 0
-29 -68 0
-37 -57 0
-37 -68 0
-46 -68 0
-4 -18 0
-4 -31 0
-4 -39 0
-4 -48 0
-4 -58 0
-4 -81 0
-7 -31 0
-7 -39 0
-7 -48 0
-7 -58 0
-7 -69 0
-11 -31 0
-11 -58 0
-16 -58 0
-16 -81 0
-22 -48 0
-22 -69 0
-22 -81 0
-29 -58 0
-29 -81 0
-37 -69 0
-37 -81 0
-46 -81 0
-8 -7 0
-8 -16 0
-8 -22 0
-8 -29 0
-8 -37 0
-8 -56 0
-12 -16 0
-12 -22 0
-12 -29 0
-12 -37 0
-12 -46 0
-17 -16 0
-17 -37 0
-23 -37 0
-23 -56 0
-30 -29 0
-30 -46 0
-30 -56 0
-38 -37 0
-38 -56 0
-47 -46 0
-47 -56 0
-57 -56 0
-8 -18 0
-8 -31 0
-8 -39 0
-8 -48 0
-8 -58 0
-8 -81 0
-12 -31 0
-12 -39 0
-12 -48 0
-12 -58 0
-12 -69 0
-17 -31 0
-17 -58 0
-23 -58 0
-23 -81 0
-30 -48 0
-30 -69 0
-30 -81 0
-38 -58 0
-38 -81 0
-47 -69 0
-47 -81 0
-57 -81 0
-13 -7 0
-13 -16 0
-13 -22 0
-13 -29 0
-13 -37 0
-13 -56 0
-18 -16 0
-18 -22 0
-18 -29 0
-18 -37 0
-18 -46 0
-24 -16 0
-24 -37 0
-31 -37 0
-31 -56 0
-39 -29 0
-39 -46 0
-39 -56 0
-48 -37 0
-48 -56 0
-58 -46 0
-58 -56 0
-69 -56 0
-13 -12 0
-13 -23 0
-13 -30 0
-13 -38 0
-13 -47 0
-13 -68 0
-18 -23 0
-18 -30 0
-18 -38 0
-18 -47 0
-18 -57 0
-24 -23 0
-24 -47 0
-31 -47 0
-31 -68 0
-39 -38 0
-39 -57 0
-39 -68 0
-48 -47 0
-48 -68 0
-58 -57 0
-58 -68 0
-69 -68 0
